23727 27825
38951 4095
7970 12468
37511 53440
58946 49214
32703 50537
53639 64406
6718 38499
10107 9990
23158 3309
15597 64771
48525 7648
25794 33815
11290 56507
18457 65396
37398 15923
58324 42055
56305 25446
30547 25997
16493 29618
65148 26599
26713 14765
2999 62908
47912 17476
51439 49665
1630 25235
8839 39125
10604 19318
63602 2134
9546 6973
22482 36296
12658 16450
47212 23073
1417 28941
